NAME: line_60_5
TYPE: TSP
COMMENT: line_60_5
DIMENSION: 60
EDGE_WEIGHT_TYPE: EUC_2D
NODE_COORD_SECTION
1 0.0 286.0
2 0.0 31.0
3 0.0 567.0
4 0.0 325.0
5 0.0 0.0
6 0.0 373.0
7 0.0 568.0
8 0.0 297.0
9 0.0 587.0
10 0.0 500.0
11 0.0 70.0
12 0.0 57.0
13 0.0 519.0
14 0.0 593.0
15 0.0 194.0
16 0.0 180.0
17 0.0 449.0
18 0.0 309.0
19 0.0 305.0
20 0.0 220.0
21 0.0 363.0
22 0.0 1.0
23 0.0 575.0
24 0.0 314.0
25 0.0 103.0
26 0.0 561.0
27 0.0 355.0
28 0.0 439.0
29 0.0 338.0
30 0.0 357.0
31 0.0 107.0
32 0.0 112.0
33 0.0 466.0
34 0.0 488.0
35 0.0 163.0
36 0.0 34.0
37 0.0 187.0
38 0.0 557.0
39 0.0 304.0
40 0.0 372.0
41 0.0 498.0
42 0.0 138.0
43 0.0 24.0
44 0.0 212.0
45 0.0 221.0
46 0.0 455.0
47 0.0 531.0
48 0.0 142.0
49 0.0 198.0
50 0.0 137.0
51 0.0 448.0
52 0.0 593.0
53 0.0 282.0
54 0.0 68.0
55 0.0 399.0
56 0.0 461.0
57 0.0 286.0
58 0.0 533.0
59 0.0 573.0
60 0.0 127.0
